max_w = 20;
max_h = 10;
max_links = 6;
COMPONENT = {Q1, J1, R1, R2, D1, C1, C2};
allowed_orientation = [
  Q1: {Upright, UpsideDown},
  J1: {Upright, UpsideDown},
  R1: ORIENTATION,
  R2: ORIENTATION,
  D1: ORIENTATION,
  C1: ORIENTATION,
  C2: ORIENTATION
];
PIN = {
  Q1_C, Q1_B, Q1_E,
  J1_VCC, J1_GND, J1_IN, J1_OUT,
  R1_1, R1_2,
  R2_1, R2_2,
  D1_1, D1_2,
  C1_1, C1_2,
  C2_1, C2_2
};
NET = {VCC, GND, IN, OUT, N1, N2};
footprint_w = [Q1: 1, J1: 1, R1: 1, R2: 1, D1: 1, C1: 3, C2: 3];
footprint_h = [Q1: 3, J1: 4, R1: 5, R2: 5, D1: 5, C1: 3, C2: 3];
pin_dx = [
  Q1_C: 1, Q1_B: 1, Q1_E: 1,
  J1_VCC: 1, J1_GND: 1, J1_IN: 1, J1_OUT: 1,
  R1_1: 1, R1_2: 1,
  R2_1: 1, R2_2: 1,
  D1_1: 1, D1_2: 1,
  C1_1: 2, C1_2: 2,
  C2_1: 2, C2_2: 2
];
pin_dy = [
  Q1_C: 1, Q1_B: 2, Q1_E: 3,
  J1_VCC: 1, J1_GND: 2, J1_IN: 3, J1_OUT: 4,
  R1_1: 1, R1_2: 3,
  R2_1: 1, R2_2: 3,
  D1_1: 1, D1_2: 3,
  C1_1: 1, C1_2: 3,
  C2_1: 1, C2_2: 3
];
pin_net = [
  Q1_C: N2, Q1_B: N1, Q1_E: GND,
  J1_VCC: VCC, J1_GND: GND, J1_IN: IN, J1_OUT: OUT,
  R1_1: VCC, R1_2: N2,
  R2_1: N2, R2_2: OUT,
  D1_1: N2, D1_2: N1,
  C1_1: IN, C1_2: N1,
  C2_1: OUT, C2_2: GND
];
pins = [
  Q1: Q1_C..Q1_E,
  J1: J1_VCC..J1_OUT,
  R1: R1_1..R1_2,
  R2: R2_1..R2_2,
  D1: D1_1..D1_2,
  C1: C1_1..C1_2,
  C2: C2_1..C2_2
];
